
        $ From http://www.csplib.org/Problems/prob009/data/helmut.pdf
        $ Problem number 42
        $ Sequence length : 24
        language ESSENCE' 1.0
        letting sizemaster be 423
        letting sizes be sequence(2,9,15,17,27,29,31,32,33,36,47,49,50,60,62,77,105,114,123,127,128,132,168,186)
        